p tw 504 7981 8 
1 9 
1 11 
1 421 
1 423 
2 7 
2 10 
2 12 
2 422 
2 424 
3 8 
3 10 
3 413 
4 7 
4 9 
4 414 
5 9 
5 10 
5 415 
6 7 
6 8 
6 416 
11 18 
11 19 
11 423 
12 17 
12 20 
12 424 
13 18 
13 20 
13 23 
14 17 
14 19 
14 24 
15 19 
15 20 
15 25 
16 17 
16 18 
16 26 
21 28 
21 29 
21 31 
21 425 
21 427 
22 27 
22 30 
22 32 
22 426 
22 428 
23 28 
23 30 
24 27 
24 29 
25 29 
25 30 
26 27 
26 28 
31 38 
31 39 
31 427 
32 37 
32 40 
32 428 
33 38 
33 40 
33 43 
34 37 
34 39 
34 44 
35 39 
35 40 
35 45 
36 37 
36 38 
36 46 
41 48 
41 49 
41 51 
41 429 
41 431 
42 47 
42 50 
42 52 
42 430 
42 432 
43 48 
43 50 
44 47 
44 49 
45 49 
45 50 
46 47 
46 48 
51 58 
51 59 
51 431 
52 57 
52 60 
52 432 
53 58 
53 60 
53 63 
54 57 
54 59 
54 64 
55 59 
55 60 
55 65 
56 57 
56 58 
56 66 
61 68 
61 69 
61 71 
61 433 
61 435 
62 67 
62 70 
62 72 
62 434 
62 436 
63 68 
63 70 
64 67 
64 69 
65 69 
65 70 
66 67 
66 68 
71 78 
71 79 
71 435 
72 77 
72 80 
72 436 
73 78 
73 80 
73 83 
74 77 
74 79 
74 84 
75 79 
75 80 
75 85 
76 77 
76 78 
76 86 
81 88 
81 89 
81 91 
81 437 
81 439 
82 87 
82 90 
82 92 
82 438 
82 440 
83 88 
83 90 
84 87 
84 89 
85 89 
85 90 
86 87 
86 88 
91 98 
91 99 
91 439 
92 97 
92 100 
92 440 
93 98 
93 100 
93 103 
94 97 
94 99 
94 104 
95 99 
95 100 
95 105 
96 97 
96 98 
96 106 
101 108 
101 109 
101 111 
101 441 
101 443 
102 107 
102 110 
102 112 
102 442 
102 444 
103 108 
103 110 
104 107 
104 109 
105 109 
105 110 
106 107 
106 108 
111 118 
111 119 
111 443 
112 117 
112 120 
112 444 
113 118 
113 120 
113 123 
114 117 
114 119 
114 124 
115 119 
115 120 
115 125 
116 117 
116 118 
116 126 
121 128 
121 129 
121 131 
121 445 
121 447 
122 127 
122 130 
122 132 
122 446 
122 448 
123 128 
123 130 
124 127 
124 129 
125 129 
125 130 
126 127 
126 128 
131 138 
131 139 
131 447 
132 137 
132 140 
132 448 
133 138 
133 140 
133 143 
134 137 
134 139 
134 144 
135 139 
135 140 
135 145 
136 137 
136 138 
136 146 
141 148 
141 149 
141 151 
141 449 
141 451 
142 147 
142 150 
142 152 
142 450 
142 452 
143 148 
143 150 
144 147 
144 149 
145 149 
145 150 
146 147 
146 148 
151 158 
151 159 
151 451 
152 157 
152 160 
152 452 
153 158 
153 160 
153 163 
154 157 
154 159 
154 164 
155 159 
155 160 
155 165 
156 157 
156 158 
156 166 
161 168 
161 169 
161 171 
161 453 
161 455 
162 167 
162 170 
162 172 
162 454 
162 456 
163 168 
163 170 
164 167 
164 169 
165 169 
165 170 
166 167 
166 168 
171 178 
171 179 
171 455 
172 177 
172 180 
172 456 
173 178 
173 180 
173 183 
174 177 
174 179 
174 184 
175 179 
175 180 
175 185 
176 177 
176 178 
176 186 
181 188 
181 189 
181 191 
181 457 
181 459 
182 187 
182 190 
182 192 
182 458 
182 460 
183 188 
183 190 
184 187 
184 189 
185 189 
185 190 
186 187 
186 188 
191 198 
191 199 
191 459 
192 197 
192 200 
192 460 
193 198 
193 200 
193 203 
194 197 
194 199 
194 204 
195 199 
195 200 
195 205 
196 197 
196 198 
196 206 
201 208 
201 209 
201 211 
201 461 
201 463 
202 207 
202 210 
202 212 
202 462 
202 464 
203 208 
203 210 
204 207 
204 209 
205 209 
205 210 
206 207 
206 208 
211 218 
211 219 
211 463 
212 217 
212 220 
212 464 
213 218 
213 220 
213 223 
214 217 
214 219 
214 224 
215 219 
215 220 
215 225 
216 217 
216 218 
216 226 
221 228 
221 229 
221 231 
221 465 
221 467 
222 227 
222 230 
222 232 
222 466 
222 468 
223 228 
223 230 
224 227 
224 229 
225 229 
225 230 
226 227 
226 228 
231 238 
231 239 
231 467 
232 237 
232 240 
232 468 
233 238 
233 240 
233 243 
234 237 
234 239 
234 244 
235 239 
235 240 
235 245 
236 237 
236 238 
236 246 
241 248 
241 249 
241 251 
241 469 
241 471 
242 247 
242 250 
242 252 
242 470 
242 472 
243 248 
243 250 
244 247 
244 249 
245 249 
245 250 
246 247 
246 248 
251 258 
251 259 
251 471 
252 257 
252 260 
252 472 
253 258 
253 260 
253 263 
254 257 
254 259 
254 264 
255 259 
255 260 
255 265 
256 257 
256 258 
256 266 
261 268 
261 269 
261 271 
261 473 
261 475 
262 267 
262 270 
262 272 
262 474 
262 476 
263 268 
263 270 
264 267 
264 269 
265 269 
265 270 
266 267 
266 268 
271 278 
271 279 
271 475 
272 277 
272 280 
272 476 
273 278 
273 280 
273 283 
274 277 
274 279 
274 284 
275 279 
275 280 
275 285 
276 277 
276 278 
276 286 
281 288 
281 289 
281 291 
281 477 
281 479 
282 287 
282 290 
282 292 
282 478 
282 480 
283 288 
283 290 
284 287 
284 289 
285 289 
285 290 
286 287 
286 288 
291 298 
291 299 
291 479 
292 297 
292 300 
292 480 
293 298 
293 300 
293 303 
294 297 
294 299 
294 304 
295 299 
295 300 
295 305 
296 297 
296 298 
296 306 
301 308 
301 309 
301 311 
301 481 
301 483 
302 307 
302 310 
302 312 
302 482 
302 484 
303 308 
303 310 
304 307 
304 309 
305 309 
305 310 
306 307 
306 308 
311 318 
311 319 
311 483 
312 317 
312 320 
312 484 
313 318 
313 320 
313 323 
314 317 
314 319 
314 324 
315 319 
315 320 
315 325 
316 317 
316 318 
316 326 
321 328 
321 329 
321 331 
321 485 
321 487 
322 327 
322 330 
322 332 
322 486 
322 488 
323 328 
323 330 
324 327 
324 329 
325 329 
325 330 
326 327 
326 328 
331 338 
331 339 
331 487 
332 337 
332 340 
332 488 
333 338 
333 340 
333 343 
334 337 
334 339 
334 344 
335 339 
335 340 
335 345 
336 337 
336 338 
336 346 
341 348 
341 349 
341 351 
341 489 
341 491 
342 347 
342 350 
342 352 
342 490 
342 492 
343 348 
343 350 
344 347 
344 349 
345 349 
345 350 
346 347 
346 348 
351 358 
351 359 
351 491 
352 357 
352 360 
352 492 
353 358 
353 360 
353 363 
354 357 
354 359 
354 364 
355 359 
355 360 
355 365 
356 357 
356 358 
356 366 
361 368 
361 369 
361 371 
361 493 
361 495 
362 367 
362 370 
362 372 
362 494 
362 496 
363 368 
363 370 
364 367 
364 369 
365 369 
365 370 
366 367 
366 368 
371 378 
371 379 
371 495 
372 377 
372 380 
372 496 
373 378 
373 380 
373 383 
374 377 
374 379 
374 384 
375 379 
375 380 
375 385 
376 377 
376 378 
376 386 
381 388 
381 389 
381 391 
381 497 
381 499 
382 387 
382 390 
382 392 
382 498 
382 500 
383 388 
383 390 
384 387 
384 389 
385 389 
385 390 
386 387 
386 388 
391 398 
391 399 
391 499 
392 397 
392 400 
392 500 
393 398 
393 400 
393 403 
394 397 
394 399 
394 404 
395 399 
395 400 
395 405 
396 397 
396 398 
396 406 
401 408 
401 409 
401 411 
401 501 
401 503 
402 407 
402 410 
402 412 
402 502 
402 504 
403 408 
403 410 
404 407 
404 409 
405 409 
405 410 
406 407 
406 408 
411 418 
411 419 
411 503 
412 417 
412 420 
412 504 
413 418 
413 420 
414 417 
414 419 
415 419 
415 420 
416 417 
416 418 
421 422 
423 424 
425 426 
427 428 
429 430 
431 432 
433 434 
435 436 
437 438 
439 440 
441 442 
443 444 
445 446 
447 448 
449 450 
451 452 
453 454 
455 456 
457 458 
459 460 
461 462 
463 464 
465 466 
467 468 
469 470 
471 472 
473 474 
475 476 
477 478 
479 480 
481 482 
483 484 
485 486 
487 488 
489 490 
491 492 
493 494 
495 496 
497 498 
499 500 
501 502 
503 504 
